WARNING: for repeatability, setting FPU to use double precision
============================[ Problem Statistics ]=============================
|                                                                             |
|  Number of variables:           100                                         |
|  Number of clauses:             449                                         |
|  Parse time:                   0.00 s                                       |
|  Eliminated clauses:           0.00 Mb                                      |
|  Simplification time:          0.00 s                                       |
|                                                                             |
============================[ Search Statistics ]==============================
| Conflicts |          ORIGINAL         |          LEARNT          | Progress |
|           |    Vars  Clauses Literals |    Limit  Clauses Lit/Cl |          |
===============================================================================
|       100 |      95      439     1335 |      160      100      7 |  0.010 % |
===============================================================================
restarts              : 2
conflicts             : 105            (53681 /sec)
decisions             : 150            (0.00 % random) (76687 /sec)
propagations          : 2631           (1345092 /sec)
conflict literals     : 772            (11.26 % deleted)
Memory used           : 13.00 MB
CPU time              : 0.001956 s

SATISFIABLE
